p cnf 65 41
-19 23 24 0
65 0
-26 -24 0
-37 41 42 0
-41 -40 0
38 -27 40 0
-20 6 0
-40 -38 0
-2 -6 38 0
-1 -5 19 0
-39 -27 0
-38 6 0
-33 20 0
-34 -33 0
35 36 37 0
-3 -6 20 0
-36 -30 0
-2 -4 18 0
-30 34 35 0
-19 -20 33 0
-35 -34 0
32 33 34 0
-32 15 0
-27 26 0
-3 -5 30 0
-44 -43 0
-44 -42 0
27 28 29 0
37 -41 43 0
-28 -18 0
-37 -35 0
-49 5 0
-65 64 0
-64 63 0
-63 62 0
-62 61 0
-62 -29 0
-61 44 0
20 -15 22 0
39 40 41 0
-23 -22 0
